; aiohttp :: corpus-study/repo_src/aiohttp/docs/code/client_middleware_cookbook.py :: LOCK 'TokenRefreshExpiryMiddleware.lock' :: structured encoding (verdict: unsat)
; Generated by snf-pipeline (encoder.py) -- run with any
; SMT-LIB2-compliant solver, e.g. `z3 aiohttp__corpus-study_repo_src_aiohttp_docs_code_client_middleware_cookbook.py__TokenRefreshExpiryMiddleware.lock__structured.smt2`
; benchmark generated from python API
(set-info :status unknown)
(declare-fun lorder_0 () Int)
(assert
 (>= lorder_0 1))
(assert
 (<= lorder_0 1))
(assert
 (and true))
(assert
 false)
(check-sat)
